db/inputs/170622184724639259692831219094200381270.smt2
(set-logic QF_FP)
(declare-const x0 (_ FloatingPoint 8 24))
(declare-const x1 (_ FloatingPoint 8 24))
(declare-const x2 (_ FloatingPoint 8 24))
(declare-const x3 (_ FloatingPoint 8 24))
(declare-const x4 (_ FloatingPoint 8 24))
(declare-const x5 (_ FloatingPoint 8 24))
(declare-const x6 (_ FloatingPoint 8 24))
(declare-const x7 (_ FloatingPoint 8 24))
(declare-const x8 (_ FloatingPoint 8 24))
(declare-const x9 (_ FloatingPoint 8 24))
(declare-const x10 (_ FloatingPoint 8 24))
(declare-const x11 (_ FloatingPoint 8 24))
(declare-const x12 (_ FloatingPoint 8 24))
(declare-const x13 (_ FloatingPoint 8 24))
(declare-const x14 (_ FloatingPoint 8 24))
(declare-const x15 (_ FloatingPoint 8 24))
(declare-const x16 (_ FloatingPoint 8 24))
(assert (fp.geq (fp.div RNE (fp.mul RNE (fp.neg x14) (fp.mul RNE x14 x1)) (fp.neg (fp.mul RNE x8 x9))) (fp.add RNE (fp.neg (fp.add RNE x10 x2)) (fp.mul RNE (fp.sub RNE x2 x9) (fp.div RNE x3 x15)))))
(assert (fp.gt (fp.mul RNE (fp.div RNE (fp.add RNE x4 x1) (fp.div RNE x15 x5)) (fp.sub RNE (fp.sub RNE x13 x14) (fp.add RNE x4 x0))) (fp.neg (fp.add RNE (fp.add RNE x1 x5) (fp.neg x13)))))
(assert (fp.gt (fp.mul RNE (fp.neg (fp.mul RNE x3 x11)) (fp.sub RNE (fp.neg x10) (fp.neg x9))) (fp.neg (fp.mul RNE (fp.add RNE x10 x10) (fp.div RNE x0 x11)))))
(assert (fp.lt (fp.neg (fp.div RNE (fp.mul RNE x8 x0) (fp.mul RNE x10 x16))) (fp.add RNE (fp.mul RNE (fp.div RNE x16 x12) (fp.sub RNE x15 x14)) (fp.mul RNE (fp.mul RNE x13 x5) (fp.neg x7)))))
(assert (fp.geq (fp.mul RNE (fp.mul RNE (fp.sub RNE x10 x14) (fp.sub RNE x8 x10)) (fp.div RNE (fp.sub RNE x3 x9) (fp.add RNE x1 x12))) (fp.mul RNE (fp.add RNE (fp.div RNE x5 x8) (fp.neg x2)) (fp.add RNE (fp.div RNE x6 x16) (fp.div RNE x15 x12)))))
(assert (fp.lt (fp.mul RNE (fp.mul RNE (fp.mul RNE x0 x0) (fp.sub RNE x14 x0)) (fp.add RNE (fp.neg x14) (fp.add RNE x2 x7))) (fp.mul RNE (fp.sub RNE (fp.neg x7) (fp.sub RNE x0 x15)) (fp.add RNE (fp.mul RNE x13 x5) (fp.mul RNE x2 x1)))))
(assert (fp.lt (fp.neg (fp.mul RNE (fp.add RNE x4 x7) (fp.mul RNE x1 x10))) (fp.neg (fp.sub RNE (fp.add RNE x14 x11) (fp.sub RNE x10 x8)))))
(assert (fp.leq (fp.mul RNE (fp.neg (fp.add RNE x7 x6)) (fp.sub RNE (fp.neg x14) (fp.sub RNE x6 x15))) (fp.div RNE (fp.mul RNE (fp.sub RNE x3 x11) (fp.sub RNE x16 x14)) (fp.sub RNE (fp.sub RNE x3 x14) (fp.neg x7)))))
(assert (fp.geq (fp.div RNE (fp.add RNE (fp.sub RNE x6 x7) (fp.add RNE x12 x11)) (fp.sub RNE (fp.add RNE x3 x3) (fp.div RNE x15 x4))) (fp.div RNE (fp.neg (fp.add RNE x12 x3)) (fp.div RNE (fp.sub RNE x16 x2) (fp.sub RNE x10 x4)))))
(assert (fp.lt (fp.mul RNE (fp.div RNE (fp.div RNE x12 x11) (fp.mul RNE x14 x3)) (fp.sub RNE (fp.mul RNE x5 x16) (fp.sub RNE x9 x12))) (fp.mul RNE (fp.add RNE (fp.div RNE x16 x1) (fp.add RNE x9 x11)) (fp.neg (fp.mul RNE x3 x16)))))
(assert (fp.leq (fp.add RNE (fp.neg (fp.add RNE x8 x14)) (fp.sub RNE (fp.add RNE x9 x11) (fp.div RNE x15 x1))) (fp.sub RNE (fp.sub RNE (fp.mul RNE x13 x7) (fp.neg x2)) (fp.sub RNE (fp.neg x14) (fp.mul RNE x4 x14)))))
(assert (fp.lt (fp.neg (fp.sub RNE (fp.add RNE x16 x10) (fp.add RNE x16 x8))) (fp.neg (fp.add RNE (fp.sub RNE x11 x7) (fp.neg x1)))))
(assert (fp.gt (fp.sub RNE (fp.neg (fp.add RNE x4 x11)) (fp.div RNE (fp.mul RNE x5 x3) (fp.sub RNE x12 x3))) (fp.add RNE (fp.sub RNE (fp.div RNE x3 x1) (fp.mul RNE x5 x8)) (fp.sub RNE (fp.div RNE x9 x6) (fp.mul RNE x15 x10)))))
(assert (fp.geq (fp.sub RNE (fp.div RNE (fp.div RNE x10 x7) (fp.sub RNE x6 x5)) (fp.mul RNE (fp.mul RNE x1 x2) (fp.add RNE x6 x14))) (fp.mul RNE (fp.mul RNE (fp.sub RNE x1 x3) (fp.sub RNE x2 x6)) (fp.sub RNE (fp.neg x10) (fp.mul RNE x6 x9)))))
(assert (fp.leq (fp.mul RNE (fp.div RNE (fp.add RNE x13 x6) (fp.div RNE x14 x10)) (fp.div RNE (fp.neg x1) (fp.mul RNE x14 x6))) (fp.neg (fp.neg (fp.add RNE x6 x10)))))
(assert (fp.geq (fp.div RNE (fp.mul RNE (fp.mul RNE x13 x1) (fp.add RNE x8 x1)) (fp.mul RNE (fp.neg x7) (fp.div RNE x10 x4))) (fp.div RNE (fp.sub RNE (fp.add RNE x6 x7) (fp.mul RNE x4 x4)) (fp.add RNE (fp.neg x11) (fp.add RNE x12 x5)))))
(assert (fp.eq (fp.neg (fp.mul RNE (fp.sub RNE x1 x11) (fp.neg x5))) (fp.neg (fp.sub RNE (fp.mul RNE x1 x5) (fp.neg x11)))))
(assert (fp.leq (fp.div RNE (fp.add RNE (fp.mul RNE x7 x3) (fp.div RNE x9 x3)) (fp.mul RNE (fp.add RNE x16 x10) (fp.div RNE x15 x15))) (fp.div RNE (fp.add RNE (fp.add RNE x6 x8) (fp.div RNE x8 x6)) (fp.sub RNE (fp.sub RNE x11 x1) (fp.mul RNE x14 x9)))))
(assert (fp.geq (fp.sub RNE (fp.mul RNE (fp.sub RNE x4 x12) (fp.add RNE x13 x12)) (fp.neg (fp.sub RNE x11 x7))) (fp.mul RNE (fp.div RNE (fp.mul RNE x15 x0) (fp.mul RNE x1 x15)) (fp.add RNE (fp.div RNE x2 x0) (fp.neg x12)))))
(check-sat)
