db/data/170622184724639259692831219094200381270.z3.out
-------------------
2500.101053824
